K-Path 
   40
Line-Mode
Rec
0.000000  0.000000  0.000000 G
0.500000  0.000000  0.000000 M

0.500000  0.000000  0.000000 M
0.333333  0.333333  0.000000 K

0.333333  0.333333  0.000000 K
0.000000  0.000000  0.000000 G
